Copyright (C) 2013-2015, Filipe Brandao
Build (method = -2)
  #dp: 4818
  Step-3' Graph: 108 vertices and 1973 arcs (0.00s)
  Step-4' Graph: 98 vertices and 1953 arcs (0.00s)
  #V4/#V3 = 0.91
  #A4/#A3 = 0.99
Ready! (0.00s)
Optimize a model with 188 rows, 1954 columns and 5670 nonzeros
Found heuristic solution: objective 145
Presolve removed 43 rows and 52 columns
Presolve time: 0.02s
Presolved: 145 rows, 1902 columns, 5362 nonzeros
Variable types: 0 continuous, 1902 integer (521 binary)
Optimize a model with 145 rows, 1902 columns and 5362 nonzeros
Presolved: 145 rows, 1902 columns, 5362 nonzeros

Root barrier log...

Ordering time: 0.00s

Barrier statistics:
 AA' NZ     : 2.804e+03
 Factor NZ  : 5.651e+03
 Factor Ops : 3.000e+05 (less than 1 second per iteration)
 Threads    : 1

                  Objective                Residual
Iter       Primal          Dual         Primal    Dual     Compl     Time
   0   4.43492423e+03 -1.42874299e+04  3.45e+04 1.27e-01  5.28e+01     0s
   1   1.15169390e+03 -4.29896482e+03  4.50e+03 6.88e-15  7.39e+00     0s
   2   2.94070452e+02 -1.77940210e+03  3.21e+02 4.55e-15  9.05e-01     0s
   3   1.73281302e+02 -3.17702825e+02  1.81e+01 4.61e-15  1.41e-01     0s
   4   1.28395279e+02 -1.15570047e+01  1.85e+00 4.65e-15  3.73e-02     0s
   5   1.08094049e+02  2.10714715e+01  6.84e-01 4.98e-15  2.29e-02     0s
   6   9.77855684e+01  5.27719011e+01  2.13e-01 5.23e-15  1.18e-02     0s
   7   9.58723442e+01  7.19380931e+01  3.95e-02 4.77e-15  6.24e-03     0s
   8   9.36265432e+01  8.67979092e+01  6.72e-03 5.69e-15  1.78e-03     0s
   9   9.29589904e+01  8.93608644e+01  3.12e-03 4.91e-15  9.37e-04     0s
  10   9.25462494e+01  9.11366538e+01  9.48e-04 5.45e-15  3.67e-04     0s
  11   9.23099319e+01  9.21779036e+01  7.69e-07 4.12e-15  3.44e-05     0s
  12   9.23000263e+01  9.22998746e+01  1.04e-12 4.99e-15  3.95e-08     0s
  13   9.23000000e+01  9.23000000e+01  2.90e-13 5.44e-15  4.02e-14     0s

Barrier solved model in 13 iterations and 0.01 seconds
Optimal objective 9.23000000e+01


Root relaxation: objective 9.230000e+01, 427 iterations, 0.01 seconds

    Nodes    |    Current Node    |     Objective Bounds      |     Work
 Expl Unexpl |  Obj  Depth IntInf | Incumbent    BestBd   Gap | It/Node Time

     0     0   92.30000    0   18  145.00000   92.30000  36.3%     -    0s
H    0     0                      93.0000000   92.30000  0.75%     -    0s

Explored 0 nodes (736 simplex iterations) in 0.05 seconds
Thread count was 1 (of 4 available processors)

Optimal solution found (tolerance 0.00e+00)
Best objective 9.300000000000e+01, best bound 9.300000000000e+01, gap 0.0%
Preprocessing time: 0.01 seconds
Gurobi run time: 0.05 seconds
Total run time: 0.06 seconds
Objective: 93
Solution:
2 x [i=1, i=72]
2 x [i=2, i=71]
2 x [i=3, i=73]
1 x [i=4, i=74]
2 x [i=5, i=75]
2 x [i=6, i=70]
2 x [i=7, i=77]
2 x [i=8, i=77]
1 x [i=9, i=67]
4 x [i=10, i=69]
2 x [i=11, i=65]
2 x [i=12, i=66]
2 x [i=13, i=63]
2 x [i=14, i=67]
1 x [i=15, i=62]
1 x [i=15, i=64]
1 x [i=16, i=59]
3 x [i=16, i=60]
1 x [i=17, i=66]
1 x [i=18, i=70]
2 x [i=19, i=56]
1 x [i=20, i=57]
3 x [i=20, i=61]
1 x [i=21, i=58]
2 x [i=21, i=68]
1 x [i=21, i=77]
1 x [i=22, i=54]
1 x [i=22, i=55]
1 x [i=22, i=90]
1 x [i=23, i=53]
1 x [i=23, i=87, i=89]
2 x [i=24, i=52]
1 x [i=25, i=51]
1 x [i=25, i=52]
1 x [i=25, i=87, i=88]
2 x [i=26, i=50]
2 x [i=27, i=49]
1 x [i=28, i=48]
3 x [i=29, i=47]
2 x [i=30, i=46]
1 x [i=30, i=47]
1 x [i=30, i=85, i=85]
3 x [i=31, i=45]
1 x [i=32, i=84]
2 x [i=33, i=43]
3 x [i=34, i=42]
3 x [i=35, i=41]
2 x [i=36, i=44]
1 x [i=37, i=79, i=84]
1 x [i=37, i=80, i=85]
1 x [i=38, i=81, i=82]
1 x [i=39, i=80, i=84]
1 x [i=40, i=79, i=81]
1 x [i=41, i=79, i=82]
1 x [i=43, i=76, i=83]
1 x [i=43, i=79, i=81]
1 x [i=48, i=78, i=78]
1 x [i=49, i=77, i=78]
1 x [i=76, i=83, i=86]
